[[89, 90, 99, 98, 97, 88, 87, 96, 95, 86, 85, 84, 94, 93, 92, 91, 83, 82, 73, 74, 75, 76, 77, 68, 67, 66, 59, 49, 58, 65, 64, 56, 57, 55, 46, 47, 48, 38, 39, 40, 41, 32, 31, 30, 29, 37, 28, 19, 20, 21, 22, 13], [11, 10, 2, 12, 3, 4, 14, 5, 6, 7, 8, 9, 18, 17, 16, 15, 23, 24, 25, 26, 27, 35, 36, 34, 33, 42, 43, 44, 45, 54, 53, 52, 50, 51, 60, 63, 62, 61, 69, 70, 71, 72, 81, 80, 78, 79]]